Traveling Salesman Problem/TSP_generados/Aleatorio1621103399_13.tsp
NAME: Aleatorio1621103399_13.tsp
COMMENT: Randomly generated scenario
TYPE: TSP
DIMENSION: 13
EDGE_WEIGHT_TYPE: ATT
NODE_COORD_SECTION
1 38.79 27.37
2 8.59 10.22
3 15.46 4.23
4 36.4 46.86
5 18.82 47.08
6 0.49 38.44
7 3.55 24.52
8 0.51 35.01
9 26.66 44.77
10 21.07 14.9
11 9.92 22.43
12 5.03 41.17
13 29.86 13.68
