Traveling Salesman Problem/TSP_generados/Aleatorio1621103399_13.opt.tour
NAME: Aleatorio1621103399_13.opt.tour
COMMENT: Optimal solution for Aleatorio1621103399_13 (137.79849778844113)
TYPE: TOUR
DIMENSION: 13
TOUR_SECTION
1 4 9 5 12 6 8 7 11 2 3 10 13
-1
EOF
